
Log started (V11.0.0) Sat May 24 00:04:16 2008

Tried aggregator 1 time.
Reduced MIP has 530 rows, 15001 columns, and 30030 nonzeros.
Presolve time =    0.09 sec.
Clique table members: 500.
MIP emphasis: balance optimality and feasibility.
MIP search method: dynamic search.
Parallel mode: none, using 1 thread.
Root relaxation solution time =    1.33 sec.

        Nodes                                         Cuts/
   Node  Left     Objective  IInf  Best Integer     Best Node    ItCnt     Gap

*     0+    0                       524774.0000    16715.7071      805   96.81%
*     0+    0                        17092.0000    16715.7071      805    2.20%
      0     0    16730.4849    60    17092.0000      Fract: 5      914    2.12%
*     0+    0                        17083.0000    16730.4849      914    2.06%
      0     0    16743.9296    61    17083.0000   Flowcuts: 1     1031    1.98%
*     0+    0                        17071.0000    16743.9296     1031    1.92%
      0     0    16752.9476    66    17071.0000       Cuts: 3     1160    1.86%
      0     0    16765.9233    64    17071.0000       Cuts: 4     1321    1.79%
      0     0    16765.9499    68    17071.0000       Cuts: 4     1359    1.79%
*     0+    0                        17064.0000    16765.9499     1359    1.75%
      0     0    16765.9571    72    17064.0000       Cuts: 4     1386    1.75%
*     0+    0                        17063.0000    16765.9571     1386    1.74%
*     0+    0                        17061.0000    16765.9571     1386    1.73%
*     0+    0                        17059.0000    16765.9571     1386    1.72%
*     0+    0                        17056.0000    16765.9571     1386    1.70%
*     0+    0                        17053.0000    16765.9571     1386    1.68%
*     0+    0                        17050.0000    16765.9571     1386    1.67%
      0     2    16765.9571    72    17050.0000    16765.9571     1386    1.67%
*    50+   50                        17049.0000    16765.9840     1759    1.66%
*    60+   60                        17048.0000    16765.9840     1821    1.65%
    100   102    16766.8326    65    17048.0000    16765.9840     2020    1.65%
*   200+  200                        17047.0000    16765.9840     2588    1.65%
    200   202    16767.0678    65    17047.0000    16765.9840     2588    1.65%
    300   302    16767.4135    61    17047.0000    16765.9840     3318    1.65%
    400   401    16769.5473    63    17047.0000    16765.9840     3921    1.65%
    500   501    16769.7169    64    17047.0000    16765.9840     4959    1.65%
    600   539    16891.9891    88    17047.0000    16891.1599    11326    0.91%
    700   567    16901.9985    82    17047.0000    16891.1599    13337    0.91%
    800   592    16892.6859    72    17047.0000    16891.1599    14505    0.91%
    900   625    16902.9390    73    17047.0000    16891.1599    16771    0.91%
   1000   654    16893.0563    69    17047.0000    16891.1599    18454    0.91%
Elapsed time = 199.41 sec. (tree size =  7.41 MB, solutions = 14)
   1100   685    16893.3489    69    17047.0000    16891.1599    22683    0.91%
   1200   708    16903.7313    70    17047.0000    16891.1599    28621    0.91%
   1300   799    16903.8565    70    17047.0000    16891.1599    33805    0.91%
   1400   899    16904.0594    71    17047.0000    16891.1599    43117    0.91%
   1500   999    16905.3266    70    17047.0000    16891.1599    45639    0.91%
   1600  1099    16905.5210    73    17047.0000    16891.1599    50458    0.91%
   1700  1199    16906.1236    69    17047.0000    16891.1599    55031    0.91%
   1800  1299    16906.4635    70    17047.0000    16891.1599    57330    0.91%
   1900  1399    16906.7369    68    17047.0000    16891.1599    60703    0.91%
   2000  1499    16916.9965    69    17047.0000    16891.1599    64885    0.91%
Elapsed time = 384.70 sec. (tree size = 18.42 MB, solutions = 14)
   2100  1599    16917.2453    70    17047.0000    16891.1599    66595    0.91%
   2200  1699    16917.3876    71    17047.0000    16891.1599    68502    0.91%
   2300  1797    16940.0568    68    17047.0000    16891.1599    70439    0.91%
   2400  1897    16928.6695    67    17047.0000    16891.1599    72718    0.91%
   2500  1997    16929.0853    68    17047.0000    16891.1599    75277    0.91%
   2600  2097    16929.5913    70    17047.0000    16891.1599    77380    0.91%
   2700  2197    16930.0158    68    17047.0000    16891.1599    78210    0.91%
   2800  2290    16955.8025    65    17047.0000    16891.1599    79370    0.91%
   2900  2390    16972.1676    64    17047.0000    16891.1599    81793    0.91%
   3000  2490    16972.4564    65    17047.0000    16891.1599    82506    0.91%
Elapsed time = 477.97 sec. (tree size = 31.14 MB, solutions = 14)
   3100  2573    16976.9726    60    17047.0000    16891.1599    83172    0.91%
   3200  2668    17009.9649    46    17047.0000    16891.1599    83563    0.91%
   3300  2767    17014.5806    45    17047.0000    16891.1599    83780    0.91%
   3400  2863    16893.4180   100    17047.0000    16891.1635    85405    0.91%
   3500  2963    16893.9967    76    17047.0000    16891.1635    86069    0.91%
   3600  3063    16894.3270    76    17047.0000    16891.1635    86664    0.91%
   3700  3163    16894.7188    76    17047.0000    16891.1635    87241    0.91%
   3800  3263    16895.2412    78    17047.0000    16891.1635    87796    0.91%
   3900  3363    16895.4187    74    17047.0000    16891.1635    88292    0.91%
   4000  3463    16895.8394    74    17047.0000    16891.1635    88856    0.91%
Elapsed time = 516.64 sec. (tree size = 43.09 MB, solutions = 14)
   4100  3563    16895.8831    74    17047.0000    16891.1635    89163    0.91%
   4200  3659    16907.0355    78    17047.0000    16891.1635    90162    0.91%
   4300  3759    16907.2869    72    17047.0000    16891.1635    90799    0.91%
   4400  3859    16908.7217    73    17047.0000    16891.1635    91619    0.91%
   4500  3956    16909.7255    74    17047.0000    16891.1635    92364    0.91%
   4600  4050    16931.2188    77    17047.0000    16891.1635    93739    0.91%
   4700  4150    16920.7971    73    17047.0000    16891.1635    94334    0.91%
   4800  4239    16932.6878    69    17047.0000    16891.1635    95556    0.91%
   4900  4337    16932.8352    72    17047.0000    16891.1635    96105    0.91%
   5000  4434    16961.3872    69    17047.0000    16891.1635    98300    0.91%
Elapsed time = 561.92 sec. (tree size = 55.97 MB, solutions = 14)
   5100  4534    16962.9144    69    17047.0000    16891.1635   100240    0.91%
   5200  4634    17017.9042    48    17047.0000    16891.1635   103923    0.91%
   5300  4734    16985.2194    57    17047.0000    16891.1635   104915    0.91%
   5400  4834    16985.8937    55    17047.0000    16891.1635   105899    0.91%
   5500  4934    16987.2005    52    17047.0000    16891.1635   108019    0.91%
   5600  5034    16988.7898    51    17047.0000    16891.1635   110467    0.91%
   5700  5130    17023.5064    43    17047.0000    16891.1635   111187    0.91%
   5800  5212    17032.9759    44    17047.0000    16891.1635   111558    0.91%
   5900  5300    17039.5142    44    17047.0000    16891.1635   111945    0.91%
   6000  5372    16893.9461   424    17047.0000    16891.4792   160562    0.91%
Elapsed time = 782.45 sec. (tree size = 68.59 MB, solutions = 14)
   6100  5472    16901.0751   188    17047.0000    16891.4792   165806    0.91%
   6200  5572    16906.8484   210    17047.0000    16891.4887   174314    0.91%
   6300  5672    16915.1510   136    17047.0000    16891.4887   176065    0.91%
   6400  5772    16894.7477   251    17047.0000    16891.4887   185041    0.91%
   6500  5872    16895.3743   126    17047.0000    16891.4887   186766    0.91%
   6600  5972    16894.7265   272    17047.0000    16891.5028   195278    0.91%
   6700  6072    16895.7793   182    17047.0000    16891.5028   197391    0.91%
   6800  6172    16894.7772   278    17047.0000    16891.5088   207191    0.91%
   6900  6272    16895.5198   160    17047.0000    16891.5088   209625    0.91%
   7000  6372    16894.6007   336    17047.0000    16891.5123   219410    0.91%
Elapsed time = 1122.41 sec. (tree size = 88.12 MB, solutions = 14)
   7100  6472    16901.6933   212    17047.0000    16891.5123   222273    0.91%
   7200  6572    16894.6942   311    17047.0000    16891.5128   231937    0.91%
   7300  6672    16895.6117   204    17047.0000    16891.5128   234378    0.91%
   7400  6772    16894.9328   259    17047.0000    16891.5314   243761    0.91%
   7500  6872    16895.4476   138    17047.0000    16891.5314   246592    0.91%
   7600  6972    16894.9055   264    17047.0000    16891.5356   255957    0.91%
   7700  7072    16895.5266   167    17047.0000    16891.5356   257598    0.91%
   7800  7172    16903.4015   274    17047.0000    16891.5376   269262    0.91%
   7900  7272    16912.1800   122    17047.0000    16891.5376   272712    0.91%
   8000  7372    16894.8237   364    17047.0000    16891.5711   281862    0.91%
Elapsed time = 1459.22 sec. (tree size = 108.97 MB, solutions = 14)
   8100  7472    16895.6540   284    17047.0000    16891.5711   285026    0.91%
   8200  7572    16894.8584   401    17047.0000    16891.5768   293826    0.91%
   8300  7672    16895.9299   269    17047.0000    16891.5768   297624    0.91%
   8400  7772    16894.8965   338    17047.0000    16891.5801   306995    0.91%
   8500  7872    16900.9419   144    17047.0000    16891.5801   310673    0.91%
   8600  7972    16894.8468   399    17047.0000    16891.6328   320689    0.91%
   8700  8072    16895.7769   294    17047.0000    16891.6328   323964    0.91%
   8800  8172    16894.8880   413    17047.0000    16891.6383   335485    0.91%
Began writing nodes to disk (directory ./cpxa01652 created)
   8900  8272    16903.4630   245    17047.0000    16891.6383   339463    0.91%
   9000  8372    16894.9812   368    17047.0000    16891.6435   350604    0.91%
Elapsed time = 1794.34 sec. (tree size = 131.13 MB, solutions = 14)
Nodefile size =  3.36 MB (0.94 MB after compression)
   9100  8472    16895.9434   206    17047.0000    16891.6435   353431    0.91%
   9200  8572    16895.0451   305    17047.0000    16891.6488   364201    0.91%
   9300  8672    16895.6558   193    17047.0000    16891.6488   366349    0.91%
   9400  8772    16895.0136   324    17047.0000    16891.6499   378626    0.91%
   9500  8872    16895.7422   168    17047.0000    16891.6499   381658    0.91%
   9600  8972    16902.0861   325    17047.0000    16891.6582   393908    0.91%
   9700  9072    16903.0577   197    17047.0000    16891.6582   397205    0.91%
   9800  9172    16895.0312   350    17047.0000    16891.6601   408402    0.91%
   9900  9272    16903.5987   256    17047.0000    16891.6601   412620    0.91%
  10000  9372    16895.2378   306    17047.0000    16891.6745   427480    0.91%
Elapsed time = 2150.94 sec. (tree size = 154.39 MB, solutions = 14)
Nodefile size = 26.75 MB (7.84 MB after compression)
  10100  9472    16895.9780   143    17047.0000    16891.6745   429220    0.91%
  10200  9572    16895.1074   335    17047.0000    16891.6842   441848    0.91%
  10300  9672    16895.9606   250    17047.0000    16891.6842   444794    0.91%
  10400  9772    16895.1205   333    17047.0000    16891.7059   456080    0.91%
  10500  9872    16895.9133   174    17047.0000    16891.7059   458650    0.91%
  10600  9972    16901.6698   385    17047.0000    16891.7124   473308    0.91%
  10700 10072    16902.6812   255    17047.0000    16891.7124   476775    0.91%
  10800 10172    16895.5378   268    17047.0000    16891.7142   489509    0.91%
  10900 10272    16896.4072   143    17047.0000    16891.7142   491279    0.91%
  11000 10372    16902.2525   294    17047.0000    16891.7142   505298    0.91%
Elapsed time = 2513.33 sec. (tree size = 178.92 MB, solutions = 14)
Nodefile size = 51.29 MB (17.86 MB after compression)
  11100 10472    16903.2469   208    17047.0000    16891.7142   506749    0.91%
  11200 10572    16895.3430   354    17047.0000    16891.7146   520485    0.91%
  11300 10672    16910.5372   211    17047.0000    16891.7146   526574    0.91%
  11400 10772    16895.2670   313    17047.0000    16891.7186   539718    0.91%
  11500 10872    16895.9732   182    17047.0000    16891.7186   542296    0.91%
  11600 10972    16895.5542   260    17047.0000    16891.7248   560355    0.91%
  11700 11072    16896.0306   158    17047.0000    16891.7248   561925    0.91%
  11800 11172    16895.4309   347    17047.0000    16891.7254   574601    0.91%
  11900 11272    16896.2213   261    17047.0000    16891.7254   576634    0.91%
  12000 11372    16902.6463   323    17047.0000    16891.7303   591420    0.91%
Elapsed time = 2917.94 sec. (tree size = 204.71 MB, solutions = 14)
Nodefile size = 77.67 MB (39.98 MB after compression)
  12100 11472    16903.5960   204    17047.0000    16891.7303   593790    0.91%
  12200 11572    16902.3202   308    17047.0000    16891.7375   611480    0.91%
  12300 11672    16903.1632   197    17047.0000    16891.7375   614596    0.91%
  12400 11772    16895.7307   371    17047.0000    16891.7513   628999    0.91%
  12500 11872    16896.4782   192    17047.0000    16891.7513   632256    0.91%
  12600 11972    16895.4854   377    17047.0000    16891.7522   645994    0.91%
  12700 12072    16897.1391   182    17047.0000    16891.7522   649044    0.91%
  12800 12172    16902.0196   400    17047.0000    16891.7623   666649    0.91%
  12900 12272    16909.0950   163    17047.0000    16891.7623   672197    0.91%
  13000 12372    16901.9262   371    17047.0000    16891.7641   690223    0.91%
Elapsed time = 3421.33 sec. (tree size = 231.69 MB, solutions = 14)
Nodefile size = 103.70 MB (61.46 MB after compression)
  13100 12472    16917.1347   169    17047.0000    16891.7641   695122    0.91%
  13200 12572    16895.8363   300    17047.0000    16891.7664   709195    0.91%
  13300 12672    16896.6302   161    17047.0000    16891.7664   711501    0.91%
  13400 12772    16895.6669   330    17047.0000    16891.7682   727670    0.91%
  13500 12872    16896.4205   167    17047.0000    16891.7682   730069    0.91%
  13600 12972    16902.1799   360    17047.0000    16891.7684   744860    0.91%
  13700 13072    16903.3816   166    17047.0000    16891.7684   748119    0.91%
  13800 13172    16896.0240   351    17047.0000    16891.7705   763581    0.91%
  13900 13272    16897.7808   208    17047.0000    16891.7705   766245    0.91%
  14000 13372    16895.7469   328    17047.0000    16891.7721   782019    0.91%
Elapsed time = 3932.52 sec. (tree size = 259.80 MB, solutions = 14)
Nodefile size = 132.33 MB (86.62 MB after compression)
  14100 13472    16896.6722   193    17047.0000    16891.7721   785540    0.91%
  14200 13572    16895.8794   401    17047.0000    16891.7729   799318    0.91%
  14300 13672    16897.3972   237    17047.0000    16891.7729   805107    0.91%
  14400 13770    16895.8974   386    17047.0000    16891.7751   828264    0.91%
  14500 13870    16896.9466   229    17047.0000    16891.7751   832318    0.91%
  14600 13970    16902.1192   306    17047.0000    16891.7789   848553    0.91%
  14700 14070    16903.3738   201    17047.0000    16891.7789   852105    0.91%
  14800 14170    16895.8485   338    17047.0000    16891.7848   868076    0.91%
  14900 14270    16897.0156   204    17047.0000    16891.7848   871710    0.91%
  15000 14370    16904.0516   311    17047.0000    16891.7869   889085    0.91%
Elapsed time = 4505.81 sec. (tree size = 289.00 MB, solutions = 14)
Nodefile size = 161.88 MB (112.86 MB after compression)
  15100 14470    16912.4115   227    17047.0000    16891.7869   895394    0.91%
  15200 14570    16902.0345   300    17047.0000    16891.7940   913094    0.91%
  15300 14670    16919.5362   136    17047.0000    16891.7940   918667    0.91%
  15400 14770    16895.8326   385    17047.0000    16891.7997   937981    0.91%
  15500 14870    16897.0290   164    17047.0000    16891.7997   942122    0.91%
  15600 14970    16896.2706   306    17047.0000    16891.8013   959318    0.91%
  15700 15070    16897.3016   172    17047.0000    16891.8013   961580    0.91%
  15800 15170    16896.1041   413    17047.0000    16891.8045   977710    0.91%
  15900 15270    16898.7020   234    17047.0000    16891.8045   983398    0.91%
  16000 15370    16896.1730   361    17047.0000    16891.8172  1004999    0.91%
Elapsed time = 5167.33 sec. (tree size = 319.39 MB, solutions = 14)
Nodefile size = 191.47 MB (139.25 MB after compression)
  16100 15470    16904.9536   215    17047.0000    16891.8172  1011736    0.91%
  16200 15566    16896.2874   382    17047.0000    16891.8192  1031102    0.91%
  16300 15666    16905.9239   226    17047.0000    16891.8192  1035609    0.91%
  16400 15766    16896.0229   334    17047.0000    16891.8206  1056643    0.91%
  16500 15866    16896.8010   179    17047.0000    16891.8206  1059509    0.91%
  16600 15966    16896.1444   399    17047.0000    16891.8217  1078938    0.91%
  16700 16066    16898.7204   290    17047.0000    16891.8217  1083587    0.91%
  16800 16164    16895.9571   451    17047.0000    16891.8242  1119184    0.91%
  16900 16264    16912.1110   206    17047.0000    16891.8242  1126806    0.91%
  17000 16364    16896.1690   436    17047.0000    16891.8353  1145113    0.91%
Elapsed time = 5915.28 sec. (tree size = 350.75 MB, solutions = 14)
Nodefile size = 223.02 MB (167.97 MB after compression)
  17100 16464    16904.0172   223    17047.0000    16891.8353  1152331    0.91%
  17200 16564    16895.9666   400    17047.0000    16891.8383  1171537    0.91%
  17300 16664    16897.1804   240    17047.0000    16891.8383  1181893    0.91%
  17400 16764    16896.4172   306    17047.0000    16891.8385  1200353    0.91%
  17500 16864    16897.8832   214    17047.0000    16891.8385  1203088    0.91%
  17600 16964    16910.2810   244    17047.0000    16891.8400  1224406    0.91%
  17700 17064    16913.7748   179    17047.0000    16891.8400  1227898    0.91%
  17800 17164    16896.4320   391    17047.0000    16891.8593  1247050    0.91%
  17900 17262    16905.1218   306    17047.0000    16891.8593  1256213    0.91%
  18000 17362    16896.4755   363    17047.0000    16891.8745  1276677    0.91%
Elapsed time = 6664.39 sec. (tree size = 383.35 MB, solutions = 14)
Nodefile size = 255.45 MB (197.52 MB after compression)
  18100 17460    16904.7485   209    17047.0000    16891.8745  1281277    0.91%
  18200 17560    16904.1692   395    17047.0000    16891.8829  1300949    0.91%
  18300 17660    16913.1154   241    17047.0000    16891.8829  1307827    0.91%
  18400 17760    16904.3203   336    17047.0000    16891.9841  1330367    0.91%
  18500 17860    16905.6343   172    17047.0000    16891.9841  1334510    0.91%
  18600 17960    16904.3681   452    17047.0000    16891.9869  1350015    0.91%
  18700 18060    16920.9030   226    17047.0000    16891.9869  1358349    0.91%

Cover cuts applied:  2037
Gomory fractional cuts applied:  20

Solution pool: 14 solutions saved.

MIP - Time limit exceeded, integer feasible:  Objective = 1.7047000000e+004
Current MIP best bound = 1.6891987533e+004 (gap = 155.012, 0.91%)
Solution time = 7200.39 sec.  Iterations = 1366493  Nodes = 18708 (18067)


Incumbent solution
Variable Name           Solution Value
Cmax                      17047.000000
X_1_26                        1.000000
X_2_25                        1.000000
X_3_28                        1.000000
X_4_26                        1.000000
X_5_2                         1.000000
X_6_3                         1.000000
X_7_15                        1.000000
X_8_22                        1.000000
X_9_24                        1.000000
X_10_23                       1.000000
X_11_11                       1.000000
X_12_6                        1.000000
X_13_25                       1.000000
X_14_21                       1.000000
X_15_23                       1.000000
X_16_14                       1.000000
X_17_6                        1.000000
X_18_21                       1.000000
X_19_7                        1.000000
X_20_8                        1.000000
X_21_12                       1.000000
X_22_9                        1.000000
X_23_17                       1.000000
X_24_21                       1.000000
X_25_21                       1.000000
X_26_16                       1.000000
X_27_14                       1.000000
X_28_13                       1.000000
X_29_25                       1.000000
X_30_22                       1.000000
X_31_16                       1.000000
X_32_17                       1.000000
X_33_1                        1.000000
X_34_9                        1.000000
X_35_18                       1.000000
X_36_22                       1.000000
X_37_29                       1.000000
X_38_16                       1.000000
X_39_4                        1.000000
X_40_25                       1.000000
X_41_1                        1.000000
X_42_11                       1.000000
X_43_15                       1.000000
X_44_7                        1.000000
X_45_17                       1.000000
X_46_24                       1.000000
X_47_5                        1.000000
X_48_1                        1.000000
X_49_28                       1.000000
X_50_8                        1.000000
X_51_11                       1.000000
X_52_30                       1.000000
X_53_16                       1.000000
X_54_21                       1.000000
X_55_28                       1.000000
X_56_13                       1.000000
X_57_13                       1.000000
X_58_7                        1.000000
X_59_5                        1.000000
X_60_27                       1.000000
X_61_27                       1.000000
X_62_27                       1.000000
X_63_25                       1.000000
X_64_11                       1.000000
X_65_27                       1.000000
X_66_19                       1.000000
X_67_14                       1.000000
X_68_10                       1.000000
X_69_26                       1.000000
X_70_20                       1.000000
X_71_28                       1.000000
X_72_28                       1.000000
X_73_26                       1.000000
X_74_4                        1.000000
X_75_2                        1.000000
X_76_29                       1.000000
X_77_5                        1.000000
X_78_15                       1.000000
X_79_21                       1.000000
X_80_25                       1.000000
X_81_14                       1.000000
X_82_8                        1.000000
X_83_15                       1.000000
X_84_9                        1.000000
X_85_14                       1.000000
X_86_19                       1.000000
X_87_21                       1.000000
X_88_17                       1.000000
X_89_29                       1.000000
X_90_12                       1.000000
X_91_2                        1.000000
X_92_25                       1.000000
X_93_20                       1.000000
X_94_2                        1.000000
X_95_24                       1.000000
X_96_19                       1.000000
X_97_11                       1.000000
X_98_15                       1.000000
X_99_7                        1.000000
X_100_15                      1.000000
X_101_2                       1.000000
X_102_6                       1.000000
X_103_5                       1.000000
X_104_9                       1.000000
X_105_17                      1.000000
X_106_17                      1.000000
X_107_8                       1.000000
X_108_1                       1.000000
X_109_24                      1.000000
X_110_1                       1.000000
X_111_17                      1.000000
X_112_9                       1.000000
X_113_6                       1.000000
X_114_13                      1.000000
X_115_4                       1.000000
X_116_15                      1.000000
X_117_17                      1.000000
X_118_3                       1.000000
X_119_3                       1.000000
X_120_26                      1.000000
X_121_16                      1.000000
X_122_24                      1.000000
X_123_24                      1.000000
X_124_11                      1.000000
X_125_30                      1.000000
X_126_16                      1.000000
X_127_12                      1.000000
X_128_3                       1.000000
X_129_6                       1.000000
X_130_10                      1.000000
X_131_3                       1.000000
X_132_21                      1.000000
X_133_1                       1.000000
X_134_5                       1.000000
X_135_28                      1.000000
X_136_13                      1.000000
X_137_27                      1.000000
X_138_9                       1.000000
X_139_22                      1.000000
X_140_12                      1.000000
X_141_16                      1.000000
X_142_12                      1.000000
X_143_9                       1.000000
X_144_23                      1.000000
X_145_28                      1.000000
X_146_24                      1.000000
X_147_25                      1.000000
X_148_14                      1.000000
X_149_2                       1.000000
X_150_6                       1.000000
X_151_5                       1.000000
X_152_10                      1.000000
X_153_22                      1.000000
X_154_22                      1.000000
X_155_26                      1.000000
X_156_28                      1.000000
X_157_19                      1.000000
X_158_30                      1.000000
X_159_24                      1.000000
X_160_13                      1.000000
X_161_18                      1.000000
X_162_18                      1.000000
X_163_23                      1.000000
X_164_6                       1.000000
X_165_12                      1.000000
X_166_24                      1.000000
X_167_12                      1.000000
X_168_5                       1.000000
X_169_12                      1.000000
X_170_1                       1.000000
X_171_26                      1.000000
X_172_30                      1.000000
X_173_10                      1.000000
X_174_4                       1.000000
X_175_30                      1.000000
X_176_4                       1.000000
X_177_29                      1.000000
X_178_28                      1.000000
X_179_5                       1.000000
X_180_29                      1.000000
X_181_14                      1.000000
X_182_30                      1.000000
X_183_9                       1.000000
X_184_24                      1.000000
X_185_15                      1.000000
X_186_21                      1.000000
X_187_27                      1.000000
X_188_26                      1.000000
X_189_6                       1.000000
X_190_5                       1.000000
X_191_26                      1.000000
X_192_23                      1.000000
X_193_12                      1.000000
X_194_13                      1.000000
X_195_20                      1.000000
X_196_27                      1.000000
X_197_5                       1.000000
X_198_8                       1.000000
X_199_9                       1.000000
X_200_8                       1.000000
X_201_11                      1.000000
X_202_18                      1.000000
X_203_28                      1.000000
X_204_18                      1.000000
X_205_22                      1.000000
X_206_30                      1.000000
X_207_30                      1.000000
X_208_27                      1.000000
X_209_21                      1.000000
X_210_8                       1.000000
X_211_22                      1.000000
X_212_25                      1.000000
X_213_12                      1.000000
X_214_13                      1.000000
X_215_14                      1.000000
X_216_19                      1.000000
X_217_6                       1.000000
X_218_25                      1.000000
X_219_17                      1.000000
X_220_12                      1.000000
X_221_11                      1.000000
X_222_14                      1.000000
X_223_10                      1.000000
X_224_7                       1.000000
X_225_6                       1.000000
X_226_19                      1.000000
X_227_29                      1.000000
X_228_22                      1.000000
X_229_30                      1.000000
X_230_7                       1.000000
X_231_23                      1.000000
X_232_25                      1.000000
X_233_7                       1.000000
X_234_5                       1.000000
X_235_10                      1.000000
X_236_4                       1.000000
X_237_13                      1.000000
X_238_24                      1.000000
X_239_5                       1.000000
X_240_11                      1.000000
X_241_22                      1.000000
X_242_2                       1.000000
X_243_6                       1.000000
X_244_22                      1.000000
X_245_9                       1.000000
X_246_6                       1.000000
X_247_1                       1.000000
X_248_3                       1.000000
X_249_20                      1.000000
X_250_26                      1.000000
X_251_5                       1.000000
X_252_16                      1.000000
X_253_26                      1.000000
X_254_24                      1.000000
X_255_22                      1.000000
X_256_9                       1.000000
X_257_29                      1.000000
X_258_3                       1.000000
X_259_26                      1.000000
X_260_23                      1.000000
X_261_8                       1.000000
X_262_27                      1.000000
X_263_1                       1.000000
X_264_15                      1.000000
X_265_16                      1.000000
X_266_2                       1.000000
X_267_14                      1.000000
X_268_29                      1.000000
X_269_26                      1.000000
X_270_24                      1.000000
X_271_3                       1.000000
X_272_2                       1.000000
X_273_14                      1.000000
X_274_29                      1.000000
X_275_5                       1.000000
X_276_14                      1.000000
X_277_15                      1.000000
X_278_30                      1.000000
X_279_23                      1.000000
X_280_23                      1.000000
X_281_17                      1.000000
X_282_19                      1.000000
X_283_12                      1.000000
X_284_12                      1.000000
X_285_29                      1.000000
X_286_28                      1.000000
X_287_10                      1.000000
X_288_29                      1.000000
X_289_21                      1.000000
X_290_27                      1.000000
X_291_6                       1.000000
X_292_2                       1.000000
X_293_28                      1.000000
X_294_25                      1.000000
X_295_15                      1.000000
X_296_26                      1.000000
X_297_11                      1.000000
X_298_8                       1.000000
X_299_7                       1.000000
X_300_2                       1.000000
X_301_29                      1.000000
X_302_19                      1.000000
X_303_24                      1.000000
X_304_18                      1.000000
X_305_25                      1.000000
X_306_21                      1.000000
X_307_8                       1.000000
X_308_15                      1.000000
X_309_12                      1.000000
X_310_30                      1.000000
X_311_7                       1.000000
X_312_2                       1.000000
X_313_4                       1.000000
X_314_3                       1.000000
X_315_23                      1.000000
X_316_10                      1.000000
X_317_9                       1.000000
X_318_20                      1.000000
X_319_19                      1.000000
X_320_4                       1.000000
X_321_7                       1.000000
X_322_27                      1.000000
X_323_14                      1.000000
X_324_18                      1.000000
X_325_5                       1.000000
X_326_20                      1.000000
X_327_23                      1.000000
X_328_3                       1.000000
X_329_13                      1.000000
X_330_6                       1.000000
X_331_18                      1.000000
X_332_24                      1.000000
X_333_13                      1.000000
X_334_14                      1.000000
X_335_24                      1.000000
X_336_4                       1.000000
X_337_27                      1.000000
X_338_11                      1.000000
X_339_13                      1.000000
X_340_25                      1.000000
X_341_30                      1.000000
X_342_20                      1.000000
X_343_2                       1.000000
X_344_4                       1.000000
X_345_20                      1.000000
X_346_19                      1.000000
X_347_1                       1.000000
X_348_7                       1.000000
X_349_3                       1.000000
X_350_7                       1.000000
X_351_10                      1.000000
X_352_15                      1.000000
X_353_23                      1.000000
X_354_26                      1.000000
X_355_10                      1.000000
X_356_18                      1.000000
X_357_30                      1.000000
X_358_11                      1.000000
X_359_2                       1.000000
X_360_19                      1.000000
X_361_3                       1.000000
X_362_19                      1.000000
X_363_7                       1.000000
X_364_24                      1.000000
X_365_14                      1.000000
X_366_23                      1.000000
X_367_8                       1.000000
X_368_20                      1.000000
X_369_4                       1.000000
X_370_18                      1.000000
X_371_1                       1.000000
X_372_20                      1.000000
X_373_6                       1.000000
X_374_29                      1.000000
X_375_21                      1.000000
X_376_27                      1.000000
X_377_22                      1.000000
X_378_18                      1.000000
X_379_4                       1.000000
X_380_18                      1.000000
X_381_10                      1.000000
X_382_13                      1.000000
X_383_3                       1.000000
X_384_28                      1.000000
X_385_12                      1.000000
X_386_4                       1.000000
X_387_25                      1.000000
X_388_14                      1.000000
X_389_18                      1.000000
X_390_19                      1.000000
X_391_19                      1.000000
X_392_16                      1.000000
X_393_12                      1.000000
X_394_9                       1.000000
X_395_3                       1.000000
X_396_4                       1.000000
X_397_8                       1.000000
X_398_11                      1.000000
X_399_18                      1.000000
X_400_27                      1.000000
X_401_29                      1.000000
X_402_13                      1.000000
X_403_30                      1.000000
X_404_21                      1.000000
X_405_17                      1.000000
X_406_22                      1.000000
X_407_15                      1.000000
X_408_1                       1.000000
X_409_10                      1.000000
X_410_17                      1.000000
X_411_7                       1.000000
X_412_20                      1.000000
X_413_21                      1.000000
X_414_28                      1.000000
X_415_10                      1.000000
X_416_26                      1.000000
X_417_23                      1.000000
X_418_18                      1.000000
X_419_27                      1.000000
X_420_7                       1.000000
X_421_4                       1.000000
X_422_3                       1.000000
X_423_1                       1.000000
X_424_9                       1.000000
X_425_27                      1.000000
X_426_20                      1.000000
X_427_16                      1.000000
X_428_8                       1.000000
X_429_20                      1.000000
X_430_16                      1.000000
X_431_2                       1.000000
X_432_17                      1.000000
X_433_15                      1.000000
X_434_19                      1.000000
X_435_16                      1.000000
X_436_10                      1.000000
X_437_1                       1.000000
X_438_6                       1.000000
X_439_16                      1.000000
X_440_21                      1.000000
X_441_30                      1.000000
X_442_10                      1.000000
X_443_6                       1.000000
X_444_4                       1.000000
X_445_23                      1.000000
X_446_7                       1.000000
X_447_16                      1.000000
X_448_28                      1.000000
X_449_12                      1.000000
X_450_15                      1.000000
X_451_29                      1.000000
X_452_22                      1.000000
X_453_11                      1.000000
X_454_18                      1.000000
X_455_10                      1.000000
X_456_17                      1.000000
X_457_19                      1.000000
X_458_26                      1.000000
X_459_19                      1.000000
X_460_20                      1.000000
X_461_9                       1.000000
X_462_23                      1.000000
X_463_9                       1.000000
X_464_27                      1.000000
X_465_20                      1.000000
X_466_29                      1.000000
X_467_23                      1.000000
X_468_8                       1.000000
X_469_13                      1.000000
X_470_8                       1.000000
X_471_3                       1.000000
X_472_1                       1.000000
X_473_8                       1.000000
X_474_7                       1.000000
X_475_22                      1.000000
X_476_2                       1.000000
X_477_1                       1.000000
X_478_11                      1.000000
X_479_28                      1.000000
X_480_11                      1.000000
X_481_9                       1.000000
X_482_10                      1.000000
X_483_16                      1.000000
X_484_21                      1.000000
X_485_25                      1.000000
X_486_17                      1.000000
X_487_30                      1.000000
X_488_3                       1.000000
X_489_18                      1.000000
X_490_2                       1.000000
X_491_13                      1.000000
X_492_15                      1.000000
X_493_13                      1.000000
X_494_25                      1.000000
X_495_14                      1.000000
X_496_17                      1.000000
X_497_17                      1.000000
X_498_20                      1.000000
X_499_1                       1.000000
X_500_5                       1.000000
All other variables in the range 1-15001 are 0.
